GLPSOL--GLPK LP/MIP Solver 5.0
Parameter(s) specified in the command line:
 -m ../GLPK/GraphColoringGLPK.mod -d 2-FullIns_3.col.dat -o ../sol/2-FullIns_3.col.dat.sol
Reading model section from ../GLPK/GraphColoringGLPK.mod...
../GLPK/GraphColoringGLPK.mod:28: warning: unexpected end of file; missing end statement inserted
28 lines were read
Reading data section from 2-FullIns_3.col.dat...
407 lines were read
Generating colors_count...
Generating R1...
Generating R2...
Generating R3...
Model has been successfully generated
GLPK Integer Optimizer 5.0
21008 rows, 2756 columns, 70772 non-zeros
2756 integer variables, all of which are binary
Preprocessing...
21007 rows, 2756 columns, 70720 non-zeros
2756 integer variables, all of which are binary
Scaling...
 A: min|aij| =  1.000e+00  max|aij| =  1.000e+00  ratio =  1.000e+00
Problem data seem to be well scaled
Constructing initial basis...
Size of triangular part is 21007
Solving LP relaxation...
GLPK Simplex Optimizer 5.0
21007 rows, 2756 columns, 70720 non-zeros
      0: obj =   0.000000000e+00 inf =   8.560e+02 (403)
Perturbing LP to avoid stalling [200]...
   2840: obj =   4.827665074e+00 inf =   6.430e-06 (0) 25
*  6647: obj =   2.570374531e+00 inf =   2.355e-05 (1370) 38
* 10968: obj =   2.082483016e+00 inf =   3.343e-04 (1345) 42
* 14993: obj =   1.999998081e+00 inf =   1.710e-03 (266) 40
Removing LP perturbation [15171]...
* 15171: obj =   2.000000000e+00 inf =   5.978e-13 (0) 2
OPTIMAL LP SOLUTION FOUND
Integer optimization begins...
Long-step dual simplex will be used
+ 15171: mip =     not found yet >=              -inf        (1; 0)
+ 15174: mip =     not found yet >=   2.000000000e+00        (5; 0)
+ 15179: mip =     not found yet >=   2.000000000e+00        (10; 0)
+ 15184: mip =     not found yet >=   2.000000000e+00        (15; 0)
+ 15191: mip =     not found yet >=   2.000000000e+00        (22; 0)
+ 15201: mip =     not found yet >=   2.000000000e+00        (32; 0)
# 22319: obj =   2.126227025e+00 inf =   0.000e+00 (2251) 70 42%
# 25386: obj =   2.128760023e+00 inf =   0.000e+00 (2034) 30 89%
# 28023: obj =   2.130410960e+00 inf =   2.963e-14 (0) 26 89%
+ 28023: mip =     not found yet >=   2.000399594e+00        (51; 0)
# 35149: obj =   2.500001293e+00 inf =   0.000e+00 (2032) 70 52%
# 35351: obj =   2.500000000e+00 inf =   1.404e-13 (0) 2 100%
+ 35351: mip =     not found yet >=   2.000399594e+00        (52; 0)
Time used: 62.2 secs.  Memory used: 31.8 Mb.
+ 40801: mip =     not found yet >=   2.000399594e+00        (53; 0)
+ 46193: mip =     not found yet >=   2.000399594e+00        (55; 0)
+ 52351: mip =     not found yet >=   2.000399594e+00        (56; 0)
+ 55994: mip =     not found yet >=   2.000399594e+00        (58; 0)
+ 58434: mip =     not found yet >=   2.000399594e+00        (62; 0)
+ 59790: mip =     not found yet >=   2.000399594e+00        (66; 0)
+ 62430: mip =     not found yet >=   2.000399594e+00        (69; 0)
+ 67621: mip =     not found yet >=   2.000683230e+00        (69; 1)
Time used: 122.3 secs.  Memory used: 32.9 Mb.
+ 67977: mip =     not found yet >=   2.000683230e+00        (75; 1)
+ 75584: mip =     not found yet >=   2.000683230e+00        (78; 1)
+ 77294: mip =     not found yet >=   2.000683230e+00        (82; 1)
+ 78433: mip =     not found yet >=   2.000683230e+00        (86; 1)
+ 79683: mip =     not found yet >=   2.000683230e+00        (91; 1)
+ 81146: mip =     not found yet >=   2.000683230e+00        (95; 1)
# 90915: obj =   2.471719841e+00 inf =   2.509e-15 (4749) 76 27%
# 93594: obj =   2.500000000e+00 inf =   9.288e-14 (0) 26 87%
+ 93594: mip =     not found yet >=   2.000759952e+00        (96; 2)
#100115: obj =   3.000001547e+00 inf =   0.000e+00 (4383) 64 93%
#102488: obj =   3.000000000e+00 inf =   1.925e-13 (0) 23 100%
+102488: mip =     not found yet >=   2.000759952e+00        (97; 2)
Time used: 194.3 secs.  Memory used: 33.3 Mb.
+107454: mip =     not found yet >=   2.000759952e+00        (100; 2)
+112571: mip =     not found yet >=   2.000759952e+00        (101; 2)
+114694: mip =     not found yet >=   2.000759952e+00        (105; 2)
+117698: mip =     not found yet >=   2.000759952e+00        (107; 2)
+120928: mip =     not found yet >=   2.000837470e+00        (113; 3)
+121871: mip =     not found yet >=   2.000837470e+00        (121; 3)
+123533: mip =     not found yet >=   2.000837470e+00        (129; 3)
+129723: mip =     not found yet >=   2.000837470e+00        (136; 3)
+134465: mip =     not found yet >=   2.000871837e+00        (138; 4)
Time used: 257.5 secs.  Memory used: 34.2 Mb.
+138967: mip =     not found yet >=   2.000871837e+00        (140; 4)
+142683: mip =     not found yet >=   2.000871837e+00        (141; 4)
+148265: mip =     not found yet >=   2.000995168e+00        (141; 5)
+152482: mip =     not found yet >=   3.000000000e+00        (142; 6)
+153031: mip =     not found yet >=   3.000000000e+00        (147; 6)
+156513: mip =     not found yet >=   3.000000000e+00        (149; 6)
+159788: mip =     not found yet >=   3.000000000e+00        (152; 6)
+163298: mip =     not found yet >=   3.000000000e+00        (154; 6)
+164802: mip =     not found yet >=   3.000000000e+00        (158; 6)
Time used: 319.0 secs.  Memory used: 34.7 Mb.
+168818: mip =     not found yet >=   3.000000000e+00        (161; 6)
